# Problem from the book:
# Gyora Bededek: "Hidato: 2000 Pure Logic Puzzles"

# problem 2 (Practice)
param n := 5;
param puzzle: 1 2 3 4 5 :=
  1    .  .  .  . 14 
  2    . 18 12  .  . 
  3    .  . 17  4  5 
  4    .  .  7  .  . 
  5    9  8 25  1  . 
;
